c Generated map
c Size: 9 * 9, weights in range: 1 to 10, walls: True, with ratio 0.1
c dim 3 of 7
c
p sp 81 115
c graph contains 81 nodes and 115 arcs
c
a 1 10 10
a 10 1 10
a 1 2 3
a 2 1 3
a 2 11 4
a 11 2 4
a 2 3 4
a 3 2 4
a 3 12 7
a 12 3 7
a 5 14 4
a 14 5 4
a 5 6 3
a 6 5 3
a 6 15 5
a 15 6 5
a 6 7 2
a 7 6 2
a 7 16 3
a 16 7 3
a 7 8 1
a 8 7 1
a 8 17 7
a 17 8 7
a 8 9 4
a 9 8 4
a 9 18 3
a 18 9 3
a 10 19 3
a 19 10 3
a 10 11 5
a 11 10 5
a 11 20 9
a 20 11 9
a 11 12 7
a 12 11 7
a 12 21 10
a 21 12 10
a 12 13 5
a 13 12 5
a 13 22 9
a 22 13 9
a 13 14 5
a 14 13 5
a 14 23 5
a 23 14 5
a 14 15 8
a 15 14 8
a 15 24 10
a 24 15 10
a 15 16 5
a 16 15 5
a 16 25 10
a 25 16 10
a 16 17 4
a 17 16 4
a 17 18 3
a 18 17 3
a 18 27 2
a 27 18 2
a 19 28 10
a 28 19 10
a 19 20 9
a 20 19 9
a 20 29 9
a 29 20 9
a 20 21 10
a 21 20 10
a 21 30 9
a 30 21 9
a 21 22 6
a 22 21 6
a 22 31 9
a 31 22 9
a 22 23 10
a 23 22 10
a 23 32 10
a 32 23 10
a 23 24 3
a 24 23 3
a 24 25 4
a 25 24 4
a 25 34 9
a 34 25 9
a 27 36 8
a 36 27 8
a 28 37 1
a 37 28 1
a 28 29 7
a 29 28 7
a 29 38 8
a 38 29 8
a 29 30 4
a 30 29 4
a 30 39 3
a 39 30 3
a 30 31 1
a 31 30 1
a 31 40 6
a 40 31 6
a 31 32 9
a 32 31 9
a 32 41 8
a 41 32 8
a 34 43 7
a 43 34 7
a 34 35 4
a 35 34 4
a 35 44 3
a 44 35 3
a 35 36 3
a 36 35 3
a 36 45 3
a 45 36 3
a 37 46 2
a 46 37 2
a 37 38 2
a 38 37 2
a 38 47 7
a 47 38 7
a 38 39 6
a 39 38 6
a 39 48 6
a 48 39 6
a 39 40 4
a 40 39 4
a 40 49 9
a 49 40 9
a 40 41 5
a 41 40 5
a 43 52 1
a 52 43 1
a 43 44 8
a 44 43 8
a 44 53 6
a 53 44 6
a 44 45 8
a 45 44 8
a 46 55 4
a 55 46 4
a 46 47 7
a 47 46 7
a 47 56 1
a 56 47 1
a 47 48 5
a 48 47 5
a 48 57 8
a 57 48 8
a 48 49 1
a 49 48 1
a 49 58 9
a 58 49 9
a 51 60 9
a 60 51 9
a 51 52 10
a 52 51 10
a 52 61 7
a 61 52 7
a 52 53 7
a 53 52 7
a 53 62 6
a 62 53 6
a 55 64 10
a 64 55 10
a 55 56 6
a 56 55 6
a 56 65 3
a 65 56 3
a 56 57 10
a 57 56 10
a 57 66 2
a 66 57 2
a 57 58 8
a 58 57 8
a 58 59 1
a 59 58 1
a 59 68 5
a 68 59 5
a 59 60 7
a 60 59 7
a 60 61 5
a 61 60 5
a 61 70 6
a 70 61 6
a 61 62 5
a 62 61 5
a 62 71 2
a 71 62 2
a 62 63 9
a 63 62 9
a 63 72 5
a 72 63 5
a 64 73 5
a 73 64 5
a 64 65 3
a 65 64 3
a 65 74 7
a 74 65 7
a 65 66 10
a 66 65 10
a 66 75 3
a 75 66 3
a 68 77 2
a 77 68 2
a 70 79 1
a 79 70 1
a 70 71 5
a 71 70 5
a 71 80 2
a 80 71 2
a 71 72 9
a 72 71 9
a 72 81 4
a 81 72 4
a 73 74 5
a 74 73 5
a 74 75 8
a 75 74 8
a 75 76 8
a 76 75 8
a 76 77 9
a 77 76 9
a 77 78 2
a 78 77 2
a 78 79 7
a 79 78 7
a 79 80 8
a 80 79 8
a 80 81 7
a 81 80 7
